c Nemesis formula in 6CNF in accordance with DIMACS CNF format:
c    Filename: MCNC/c2670/c2670.tdl
c    Formula number 7
c    4848 variables (range: 2 - 4849)
c    1633 clauses
c
c p cnf 4849 1633
p cnf 698 1633
32	0
698	0
32	0
-33	0
31	0
36	-37	0
-36	37	0
31	33	0
-31	-33	0
-689	36	0
-689	31	0
36	31	0
-36	-31	0
689	-37	0
-689	37	0
689	-33	0
-689	33	0
37	-33	0
-37	33	0
113	116	0
-117	-691	0
115	-691	0
117	-692	0
-115	-692	0
-692	690	0
-691	690	0
630	115	0
-630	-115	0
-631	116	0
632	117	0
-632	-117	0
634	630	0
-634	-630	0
-635	631	0
636	632	0
-636	-632	0
486	-634	0
-486	634	0
486	-637	0
-486	637	0
487	-635	0
487	-638	0
488	-636	0
-488	636	0
488	-639	0
-488	639	0
-423	-486	0
-489	-486	0
-492	-486	0
-493	-486	0
-490	487	0
-490	-493	0
-490	-492	0
-490	-423	0
-423	-488	0
-491	-488	0
-492	-488	0
-493	-488	0
-431	-687	0
495	-687	0
431	-688	0
-495	-688	0
-688	493	0
-687	493	0
51	-494	0
-51	494	0
51	-495	0
-51	495	0
51	-659	0
-51	659	0
51	-669	0
-51	669	0
272	-434	0
-272	434	0
272	-435	0
-272	435	0
272	-551	0
-272	551	0
273	272	0
266	272	0
269	272	0
274	272	0
277	274	0
110	274	0
278	274	0
91	-126	0
-91	126	0
91	-127	0
-91	127	0
91	-132	0
-91	132	0
91	-134	0
-91	134	0
91	-140	0
-91	140	0
91	-147	0
-91	147	0
91	-150	0
-91	150	0
91	-155	0
-91	155	0
91	-197	0
-91	197	0
91	-208	0
-91	208	0
91	-268	0
-91	268	0
91	-278	0
-91	278	0
91	-283	0
-91	283	0
91	-285	0
-91	285	0
91	-289	0
-91	289	0
91	-330	0
-91	330	0
91	-334	0
-91	334	0
91	-338	0
-91	338	0
91	-357	0
-91	357	0
91	-361	0
-91	361	0
91	-419	0
-91	419	0
123	-124	0
-123	124	0
123	-125	0
-123	125	0
123	-129	0
-123	129	0
123	-131	0
-123	131	0
123	-144	0
-123	144	0
123	-146	0
-123	146	0
123	-200	0
-123	200	0
123	-203	0
-123	203	0
123	-207	0
-123	207	0
123	-210	0
-123	210	0
123	-275	0
-123	275	0
123	-277	0
-123	277	0
123	-280	0
-123	280	0
123	-282	0
-123	282	0
123	-358	0
-123	358	0
123	-360	0
-123	360	0
123	-418	0
-123	418	0
123	-421	0
-123	421	0
362	123	0
-362	-123	0
45	-135	0
-45	135	0
45	-136	0
-45	136	0
45	-139	0
-45	139	0
45	-141	0
-45	141	0
45	-149	0
-45	149	0
45	-151	0
-45	151	0
45	-154	0
-45	154	0
45	-156	0
-45	156	0
45	-196	0
-45	196	0
45	-198	0
-45	198	0
45	-214	0
-45	214	0
45	-267	0
-45	267	0
45	-270	0
-45	270	0
45	-284	0
-45	284	0
45	-286	0
-45	286	0
45	-288	0
-45	288	0
45	-331	0
-45	331	0
45	-333	0
-45	333	0
45	-335	0
-45	335	0
45	-337	0
-45	337	0
45	-353	0
-45	353	0
45	-356	0
-45	356	0
45	-362	0
-45	362	0
270	269	0
28	269	0
271	269	0
128	-137	0
-128	137	0
128	-138	0
-128	138	0
128	-142	0
-128	142	0
128	-145	0
-128	145	0
128	-152	0
-128	152	0
128	-157	0
-128	157	0
128	-199	0
-128	199	0
128	-201	0
-128	201	0
128	-204	0
-128	204	0
128	-211	0
-128	211	0
128	-215	0
-128	215	0
128	-271	0
-128	271	0
128	-276	0
-128	276	0
128	-281	0
-128	281	0
128	-287	0
-128	287	0
128	-332	0
-128	332	0
128	-336	0
-128	336	0
128	-354	0
-128	354	0
128	-359	0
-128	359	0
128	-422	0
-128	422	0
338	128	0
-338	-128	0
267	266	0
80	266	0
268	266	0
275	273	0
109	273	0
276	273	0
78	-347	0
-78	347	0
78	-348	0
-78	348	0
78	-404	0
-78	404	0
78	-409	0
-78	409	0
78	-415	0
-78	415	0
78	-425	0
-78	425	0
78	-429	0
-78	429	0
78	-433	0
-78	433	0
78	-438	0
-78	438	0
341	-345	0
-341	345	0
341	-346	0
-341	346	0
341	-408	0
-341	408	0
341	-414	0
-341	414	0
341	-424	0
-341	424	0
341	-428	0
-341	428	0
341	-432	0
-341	432	0
341	-437	0
-341	437	0
404	341	0
-404	-341	0
475	492	0
-475	-492	0
-476	-475	0
-477	-475	0
624	477	0
-548	-624	0
-436	-681	0
652	-681	0
436	-682	0
-652	-682	0
-682	548	0
-681	548	0
23	-652	0
-23	652	0
23	-653	0
-23	653	0
23	-656	0
-23	656	0
23	-670	0
-23	670	0
410	-439	0
-410	439	0
410	-440	0
-410	440	0
410	-497	0
-410	497	0
410	-550	0
-410	550	0
420	410	0
153	410	0
417	410	0
418	417	0
63	417	0
419	417	0
421	420	0
40	420	0
422	420	0
413	-664	0
-413	664	0
413	-665	0
-413	665	0
343	-350	0
-343	350	0
343	-351	0
-343	351	0
343	-416	0
-343	416	0
343	-485	0
-343	485	0
279	343	0
355	343	0
352	343	0
353	352	0
105	352	0
354	352	0
356	355	0
11	355	0
357	355	0
661	660	0
-661	-660	0
69	-616	0
-69	616	0
69	-617	0
-69	617	0
69	-658	0
-69	658	0
69	-661	0
-69	661	0
69	-663	0
-69	663	0
69	-671	0
-69	671	0
664	662	0
-664	-662	0
629	623	0
-629	-623	0
344	-628	0
-344	628	0
344	-629	0
-344	629	0
193	-257	0
-193	257	0
193	-258	0
-193	258	0
193	-328	0
-193	328	0
193	-349	0
-193	349	0
194	193	0
195	193	0
122	193	0
124	122	0
18	122	0
126	122	0
200	194	0
38	194	0
201	194	0
3	-259	0
-3	259	0
3	-260	0
-3	260	0
3	-597	0
-3	597	0
3	-622	0
-3	622	0
3	-627	0
-3	627	0
3	-667	0
-3	667	0
619	-625	0
-619	625	0
619	-626	0
-619	626	0
622	619	0
-622	-619	0
480	476	0
66	-483	0
-66	483	0
66	-484	0
-66	484	0
66	-575	0
-66	575	0
66	-578	0
-66	578	0
66	-668	0
-66	668	0
216	-261	0
-216	261	0
216	-262	0
-216	262	0
216	-329	0
-216	329	0
216	-430	0
-216	430	0
143	216	0
217	216	0
213	216	0
214	213	0
107	213	0
215	213	0
288	217	0
82	217	0
289	217	0
481	478	0
-481	-478	0
407	-481	0
-407	481	0
407	-482	0
-407	482	0
205	-411	0
-205	411	0
205	-412	0
-205	412	0
202	205	0
133	205	0
130	205	0
131	130	0
67	130	0
132	130	0
203	202	0
74	202	0
204	202	0
50	-654	0
-50	654	0
50	-655	0
-50	655	0
50	-657	0
-50	657	0
50	-672	0
-50	672	0
479	-610	0
-479	610	0
479	-611	0
-479	611	0
479	-614	0
-479	614	0
657	479	0
-657	-479	0
509	489	0
-510	490	0
-505	-499	0
-500	-504	0
511	491	0
-512	-509	0
-514	-509	0
-517	-509	0
-518	-509	0
-515	510	0
-515	-518	0
-515	-517	0
-515	-512	0
-512	-511	0
-516	-511	0
-517	-511	0
-518	-511	0
-381	-679	0
552	-679	0
381	-680	0
-552	-680	0
-680	518	0
-679	518	0
52	-464	0
-52	464	0
52	-465	0
-52	465	0
52	-525	0
-52	525	0
52	-552	0
-52	552	0
226	-405	0
-226	405	0
226	-406	0
-226	406	0
226	-474	0
-226	474	0
226	-524	0
-226	524	0
226	-574	0
-226	574	0
158	226	0
221	226	0
218	226	0
219	218	0
90	218	0
220	218	0
49	-163	0
-49	163	0
49	-164	0
-49	164	0
49	-168	0
-49	168	0
49	-174	0
-49	174	0
49	-182	0
-49	182	0
49	-185	0
-49	185	0
49	-190	0
-49	190	0
49	-220	0
-49	220	0
49	-229	0
-49	229	0
49	-232	0
-49	232	0
49	-241	0
-49	241	0
49	-246	0
-49	246	0
49	-251	0
-49	251	0
49	-254	0
-49	254	0
49	-290	0
-49	290	0
49	-293	0
-49	293	0
49	-307	0
-49	307	0
49	-368	0
-49	368	0
49	-370	0
-49	370	0
49	-374	0
-49	374	0
49	-378	0
-49	378	0
178	-180	0
-178	180	0
178	-181	0
-178	181	0
178	-219	0
-178	219	0
178	-222	0
-178	222	0
178	-228	0
-178	228	0
178	-231	0
-178	231	0
178	-234	0
-178	234	0
178	-248	0
-178	248	0
178	-250	0
-178	250	0
178	-253	0
-178	253	0
178	-292	0
-178	292	0
178	-295	0
-178	295	0
178	-298	0
-178	298	0
178	-306	0
-178	306	0
178	-309	0
-178	309	0
178	-317	0
-178	317	0
178	-364	0
-178	364	0
178	-367	0
-178	367	0
178	-369	0
-178	369	0
178	-371	0
-178	371	0
391	178	0
-391	-178	0
76	-161	0
-76	161	0
76	-162	0
-76	162	0
76	-165	0
-76	165	0
76	-167	0
-76	167	0
76	-169	0
-76	169	0
76	-173	0
-76	173	0
76	-175	0
-76	175	0
76	-184	0
-76	184	0
76	-186	0
-76	186	0
76	-189	0
-76	189	0
76	-191	0
-76	191	0
76	-225	0
-76	225	0
76	-240	0
-76	240	0
76	-242	0
-76	242	0
76	-245	0
-76	245	0
76	-303	0
-76	303	0
76	-313	0
-76	313	0
76	-373	0
-76	373	0
76	-375	0
-76	375	0
76	-377	0
-76	377	0
76	-391	0
-76	391	0
160	-170	0
-160	170	0
160	-171	0
-160	171	0
160	-176	0
-160	176	0
160	-179	0
-160	179	0
160	-187	0
-160	187	0
160	-192	0
-160	192	0
160	-223	0
-160	223	0
160	-224	0
-160	224	0
160	-235	0
-160	235	0
160	-243	0
-160	243	0
160	-249	0
-160	249	0
160	-296	0
-160	296	0
160	-299	0
-160	299	0
160	-304	0
-160	304	0
160	-310	0
-160	310	0
160	-314	0
-160	314	0
160	-318	0
-160	318	0
160	-365	0
-160	365	0
160	-372	0
-160	372	0
160	-376	0
-160	376	0
290	160	0
-290	-160	0
161	158	0
101	158	0
163	158	0
61	-384	0
-61	384	0
61	-385	0
-61	385	0
61	-386	0
-61	386	0
61	-389	0
-61	389	0
61	-394	0
-61	394	0
61	-443	0
-61	443	0
61	-448	0
-61	448	0
61	-454	0
-61	454	0
61	-460	0
-61	460	0
61	-463	0
-61	463	0
380	-382	0
-380	382	0
380	-383	0
-380	383	0
380	-388	0
-380	388	0
380	-393	0
-380	393	0
380	-442	0
-380	442	0
380	-447	0
-380	447	0
380	-452	0
-380	452	0
380	-459	0
-380	459	0
380	-462	0
-380	462	0
386	380	0
-386	-380	0
531	517	0
-585	-531	0
-441	-675	0
600	-675	0
441	-676	0
-600	-676	0
-676	585	0
-675	585	0
92	-599	0
-92	599	0
92	-600	0
-92	600	0
92	-603	0
-92	603	0
265	-326	0
-265	326	0
265	-327	0
-265	327	0
265	-444	0
-265	444	0
265	-470	0
-265	470	0
265	-472	0
-265	472	0
363	265	0
166	265	0
366	265	0
367	366	0
2	366	0
368	366	0
364	363	0
34	363	0
365	363	0
340	-587	0
-340	587	0
340	-588	0
-340	588	0
118	-263	0
-118	263	0
118	-264	0
-118	264	0
118	-339	0
-118	339	0
118	-342	0
-118	342	0
119	118	0
120	118	0
121	118	0
125	121	0
58	121	0
127	121	0
129	119	0
5	119	0
137	119	0
582	581	0
-582	-581	0
111	-255	0
-111	255	0
111	-256	0
-111	256	0
111	-582	0
-111	582	0
111	-586	0
-111	586	0
111	-596	0
-111	596	0
587	583	0
-587	-583	0
535	530	0
-535	-530	0
387	-534	0
-387	534	0
387	-535	0
-387	535	0
311	-324	0
-311	324	0
311	-325	0
-311	325	0
311	-390	0
-311	390	0
311	-473	0
-311	473	0
311	-496	0
-311	496	0
311	-523	0
-311	523	0
311	-549	0
-311	549	0
308	311	0
239	311	0
305	311	0
306	305	0
56	305	0
307	305	0
309	308	0
25	308	0
310	308	0
57	-526	0
-57	526	0
57	-527	0
-57	527	0
57	-533	0
-57	533	0
395	-396	0
-395	396	0
395	-397	0
-395	397	0
395	-532	0
-395	532	0
527	395	0
-527	-395	0
563	514	0
564	514	0
519	514	0
559	514	0
-565	515	0
-565	559	0
-565	519	0
-565	563	0
563	516	0
566	516	0
519	516	0
559	516	0
612	559	0
562	559	0
458	-561	0
-458	561	0
458	-562	0
-458	562	0
236	-544	0
-236	544	0
236	-545	0
-236	545	0
236	-573	0
-236	573	0
236	-598	0
-236	598	0
236	-645	0
-236	645	0
236	-646	0
-236	646	0
236	-649	0
-236	649	0
233	236	0
183	236	0
227	236	0
228	227	0
22	227	0
229	227	0
234	233	0
103	233	0
235	233	0
560	-612	0
-560	612	0
560	-613	0
-560	613	0
560	-615	0
-560	615	0
606	560	0
-606	-560	0
1	-605	0
-1	605	0
1	-606	0
-1	606	0
1	-633	0
-1	633	0
53	-576	0
-53	576	0
53	-577	0
-53	577	0
53	-579	0
-53	579	0
53	-607	0
-53	607	0
315	-536	0
-315	536	0
315	-537	0
-315	537	0
315	-540	0
-315	540	0
315	-572	0
-315	572	0
315	-641	0
-315	641	0
315	-642	0
-315	642	0
315	-644	0
-315	644	0
315	-647	0
-315	647	0
315	-648	0
-315	648	0
315	-650	0
-315	650	0
315	-651	0
-315	651	0
247	315	0
244	315	0
312	315	0
313	312	0
42	312	0
314	312	0
245	244	0
26	244	0
246	244	0
-567	-564	0
-520	-564	0
-553	-564	0
-554	565	0
-554	-520	0
-554	-567	0
-567	-566	0
-520	-566	0
-555	-566	0
-449	-677	0
557	-677	0
449	-678	0
-557	-678	0
-678	553	0
-677	553	0
-450	554	0
-451	-693	0
557	-693	0
451	-694	0
-557	-694	0
-694	555	0
-693	555	0
93	-556	0
-93	556	0
93	-557	0
-93	557	0
93	-584	0
-93	584	0
-457	454	0
-455	456	0
-453	31	0
-32	452	0
237	-320	0
-237	320	0
237	-321	0
-237	321	0
237	-456	0
-237	456	0
237	-521	0
-237	521	0
237	-542	0
-237	542	0
237	-568	0
-237	568	0
237	-589	0
-237	589	0
237	-595	0
-237	595	0
238	237	0
172	237	0
230	237	0
231	230	0
64	230	0
232	230	0
298	238	0
46	238	0
299	238	0
-392	-683	0
528	-683	0
392	-684	0
-528	-684	0
-684	520	0
-683	520	0
81	-528	0
-81	528	0
81	-529	0
-81	529	0
81	-580	0
-81	580	0
81	-618	0
-81	618	0
319	-466	0
-319	466	0
319	-467	0
-319	467	0
319	-468	0
-319	468	0
319	-522	0
-319	522	0
319	-547	0
-319	547	0
319	-601	0
-319	601	0
319	-604	0
-319	604	0
316	319	0
188	319	0
252	319	0
253	252	0
19	252	0
254	252	0
317	316	0
84	316	0
318	316	0
-446	-673	0
609	-673	0
446	-674	0
-609	-674	0
-674	567	0
-673	567	0
99	-608	0
-99	608	0
99	-609	0
-99	609	0
99	-620	0
-99	620	0
99	-621	0
-99	621	0
297	-569	0
-297	569	0
297	-570	0
-297	570	0
297	-571	0
-297	571	0
297	-593	0
-297	593	0
297	-640	0
-297	640	0
297	-643	0
-297	643	0
297	-666	0
-297	666	0
294	297	0
159	297	0
291	297	0
292	291	0
104	291	0
293	291	0
295	294	0
47	294	0
296	294	0
558	563	0
605	563	0
561	558	0
-561	-558	0
-379	-685	0
513	-685	0
379	-686	0
-513	-686	0
-686	512	0
-685	512	0
70	-322	0
-70	322	0
70	-323	0
-70	323	0
70	-513	0
-70	513	0
70	-602	0
-70	602	0
300	-398	0
-300	398	0
300	-399	0
-300	399	0
300	-403	0
-300	403	0
300	-469	0
-300	469	0
300	-471	0
-300	471	0
177	300	0
301	300	0
302	300	0
303	302	0
77	302	0
304	302	0
377	301	0
79	301	0
378	301	0
-508	-504	0
-538	-504	0
498	-538	0
-498	538	0
498	-539	0
-498	539	0
498	-543	0
-498	543	0
498	-590	0
-498	590	0
498	-592	0
-498	592	0
502	498	0
-502	-498	0
106	-502	0
-106	502	0
106	-503	0
-106	503	0
106	-541	0
-106	541	0
106	-546	0
-106	546	0
106	-591	0
-106	591	0
106	-594	0
-106	594	0
445	-507	0
-445	507	0
445	-508	0
-445	508	0
39	445	0
-39	-445	0
-507	-499	0
-503	-499	0
212	-400	0
-212	400	0
212	-401	0
-212	401	0
212	-402	0
-212	402	0
212	-426	0
-212	426	0
209	212	0
148	212	0
206	212	0
207	206	0
8	206	0
208	206	0
210	209	0
30	209	0
211	209	0
-114	-696	0
112	-696	0
114	-697	0
-112	-697	0
-697	695	0
-696	695	0
637	112	0
-637	-112	0
-638	113	0
639	114	0
-639	-114	0
-695	698	0
-690	698	0
689	-31	-36	0
691	117	-115	0
692	-117	115	0
-690	692	691	0
-116	115	117	0
-116	-115	-117	0
-631	630	632	0
-631	-630	-632	0
-487	635	638	0
-638	637	639	0
-638	-637	-639	0
-635	634	636	0
-635	-634	-636	0
-487	486	488	0
-487	-486	-488	0
687	431	-495	0
688	-431	495	0
-493	688	687	0
-432	-35	-431	0
-435	-433	-431	0
433	35	431	0
435	35	431	0
433	432	431	0
435	432	431	0
475	476	477	0
626	628	477	0
623	627	477	0
-663	-662	-624	0
-665	-660	-624	0
681	436	-652	0
682	-436	652	0
-548	682	681	0
-437	-102	-436	0
-440	-438	-436	0
438	102	436	0
440	102	436	0
438	437	436	0
440	437	436	0
156	154	153	0
94	154	153	0
157	154	153	0
156	68	153	0
94	68	153	0
157	68	153	0
156	155	153	0
94	155	153	0
157	155	153	0
-414	-29	-413	0
-416	-415	-413	0
415	29	413	0
416	29	413	0
415	414	413	0
416	414	413	0
282	280	279	0
83	280	279	0
283	280	279	0
282	75	279	0
83	75	279	0
283	75	279	0
282	281	279	0
83	281	279	0
283	281	279	0
-346	-36	-344	0
-349	-348	-344	0
348	36	344	0
349	36	344	0
348	346	344	0
349	346	344	0
198	196	195	0
55	196	195	0
199	196	195	0
198	87	195	0
55	87	195	0
199	87	195	0
198	197	195	0
55	197	195	0
199	197	195	0
610	482	476	0
478	654	476	0
484	427	480	0
-484	-427	480	0
-484	427	-480	0
484	-427	-480	0
-428	-86	-427	0
-430	-429	-427	0
429	86	427	0
430	86	427	0
429	428	427	0
430	428	427	0
146	144	143	0
14	144	143	0
147	144	143	0
146	16	143	0
14	16	143	0
147	16	143	0
146	145	143	0
14	145	143	0
147	145	143	0
-408	-43	-407	0
-411	-409	-407	0
409	43	407	0
411	43	407	0
409	408	407	0
411	408	407	0
136	135	133	0
13	135	133	0
138	135	133	0
136	100	133	0
13	100	133	0
138	100	133	0
136	134	133	0
13	134	133	0
138	134	133	0
504	499	489	0
-509	-499	-489	0
-509	-504	-489	0
-505	-506	511	0
-505	-504	509	0
-505	509	511	0
-500	-501	511	0
-500	-499	509	0
-500	509	511	0
-510	504	499	0
-490	489	491	0
-490	-489	-491	0
504	499	491	0
-511	-499	-491	0
-511	-504	-491	0
-510	509	511	0
-510	-509	-511	0
679	381	-552	0
680	-381	552	0
-518	680	679	0
-383	-17	-381	0
-405	-385	-381	0
385	17	381	0
405	17	381	0
385	383	381	0
405	383	381	0
-225	-224	-221	0
224	222	221	0
225	222	221	0
224	41	221	0
225	41	221	0
224	223	221	0
225	223	221	0
532	534	517	0
530	533	517	0
-586	-583	-531	0
-588	-581	-531	0
675	441	-600	0
676	-441	600	0
-585	676	675	0
-442	-88	-441	0
-444	-443	-441	0
443	88	441	0
444	88	441	0
443	442	441	0
444	442	441	0
169	167	166	0
95	167	166	0
171	167	166	0
169	21	166	0
95	21	166	0
171	21	166	0
169	168	166	0
95	168	166	0
171	168	166	0
-345	-96	-340	0
-342	-347	-340	0
347	96	340	0
342	96	340	0
347	345	340	0
342	345	340	0
141	139	120	0
62	139	120	0
142	139	120	0
141	7	120	0
62	7	120	0
142	7	120	0
141	140	120	0
62	140	120	0
142	140	120	0
-388	-108	-387	0
-390	-389	-387	0
389	108	387	0
390	108	387	0
389	388	387	0
390	388	387	0
242	240	239	0
48	240	239	0
243	240	239	0
242	15	239	0
48	15	239	0
243	15	239	0
242	241	239	0
48	241	239	0
243	241	239	0
-515	514	516	0
-515	-514	-516	0
-559	-612	-562	0
-459	-60	-458	0
-544	-460	-458	0
460	60	458	0
544	60	458	0
460	459	458	0
544	459	458	0
186	184	183	0
59	184	183	0
187	184	183	0
186	10	183	0
59	10	183	0
187	10	183	0
186	185	183	0
59	185	183	0
187	185	183	0
576	461	519	0
-576	-461	519	0
-576	461	-519	0
576	-461	-519	0
-462	-24	-461	0
-536	-463	-461	0
463	24	461	0
536	24	461	0
463	462	461	0
536	462	461	0
250	248	247	0
20	248	247	0
251	248	247	0
250	65	247	0
20	65	247	0
251	65	247	0
250	249	247	0
20	249	247	0
251	249	247	0
-565	564	566	0
-565	-564	-566	0
677	449	-557	0
678	-449	557	0
-553	678	677	0
-554	553	555	0
-554	-553	-555	0
693	451	-557	0
694	-451	557	0
-555	694	693	0
-452	-31	-449	0
-456	-454	-449	0
454	31	449	0
456	31	449	0
454	452	449	0
456	452	449	0
-457	-452	-31	0
-455	-452	-31	0
-453	-456	-454	0
-32	-456	-454	0
-450	449	451	0
-450	-449	-451	0
-452	-33	-451	0
-456	-454	-451	0
454	33	451	0
456	33	451	0
454	452	451	0
456	452	451	0
175	173	172	0
54	173	172	0
176	173	172	0
175	12	172	0
54	12	172	0
176	12	172	0
175	174	172	0
54	174	172	0
176	174	172	0
683	392	-528	0
684	-392	528	0
-520	684	683	0
-393	-4	-392	0
-466	-394	-392	0
394	4	392	0
466	4	392	0
394	393	392	0
466	393	392	0
191	189	188	0
71	189	188	0
192	189	188	0
191	98	188	0
71	98	188	0
192	98	188	0
191	190	188	0
71	190	188	0
192	190	188	0
673	446	-609	0
674	-446	609	0
-567	674	673	0
-447	-9	-446	0
-569	-448	-446	0
448	9	446	0
569	9	446	0
448	447	446	0
569	447	446	0
165	162	159	0
6	162	159	0
170	162	159	0
165	27	159	0
6	27	159	0
170	27	159	0
165	164	159	0
6	164	159	0
170	164	159	0
-563	-558	-605	0
685	379	-513	0
686	-379	513	0
-512	686	685	0
-382	-44	-379	0
-398	-384	-379	0
384	44	379	0
398	44	379	0
384	382	379	0
398	382	379	0
181	180	177	0
73	180	177	0
182	180	177	0
181	85	177	0
73	85	177	0
182	85	177	0
181	179	177	0
73	179	177	0
182	179	177	0
504	508	538	0
499	507	503	0
-424	-72	-423	0
-426	-425	-423	0
425	72	423	0
426	72	423	0
425	424	423	0
426	424	423	0
151	149	148	0
89	149	148	0
152	149	148	0
151	97	148	0
89	97	148	0
152	97	148	0
151	150	148	0
89	150	148	0
152	150	148	0
696	114	-112	0
697	-114	112	0
-695	697	696	0
-113	112	114	0
-113	-112	-114	0
-698	695	690	0
-274	-277	-110	-278	0
-269	-270	-28	-271	0
-266	-267	-80	-268	0
-273	-275	-109	-276	0
-624	-627	-628	-477	0
-624	-623	-628	-477	0
-624	-627	-626	-477	0
-624	-623	-626	-477	0
548	660	662	624	0
548	665	662	624	0
548	660	663	624	0
548	665	663	624	0
-410	-420	-153	-417	0
-417	-418	-63	-419	0
-155	-68	-154	-153	0
-157	-94	-156	-153	0
-420	-421	-40	-422	0
-343	-279	-355	-352	0
-352	-353	-105	-354	0
-355	-356	-11	-357	0
-281	-75	-280	-279	0
-283	-83	-282	-279	0
-193	-194	-195	-122	0
-122	-124	-18	-126	0
-197	-87	-196	-195	0
-199	-55	-198	-195	0
-194	-200	-38	-201	0
-480	-654	-482	-476	0
-480	-478	-482	-476	0
-480	-654	-610	-476	0
-480	-478	-610	-476	0
-216	-143	-217	-213	0
-213	-214	-107	-215	0
-217	-288	-82	-289	0
-145	-16	-144	-143	0
-147	-14	-146	-143	0
-205	-202	-133	-130	0
-130	-131	-67	-132	0
-134	-100	-135	-133	0
-138	-13	-136	-133	0
-202	-203	-74	-204	0
-226	-158	-221	-218	0
-218	-219	-90	-220	0
-223	-41	-222	-221	0
-158	-161	-101	-163	0
-531	-533	-534	-517	0
-531	-530	-534	-517	0
-531	-533	-532	-517	0
-531	-530	-532	-517	0
585	581	583	531	0
585	588	583	531	0
585	581	586	531	0
585	588	586	531	0
-265	-363	-166	-366	0
-366	-367	-2	-368	0
-168	-21	-167	-166	0
-171	-95	-169	-166	0
-363	-364	-34	-365	0
-118	-119	-120	-121	0
-121	-125	-58	-127	0
-140	-7	-139	-120	0
-142	-62	-141	-120	0
-119	-129	-5	-137	0
-311	-308	-239	-305	0
-305	-306	-56	-307	0
-241	-15	-240	-239	0
-243	-48	-242	-239	0
-308	-309	-25	-310	0
-236	-233	-183	-227	0
-227	-228	-22	-229	0
-185	-10	-184	-183	0
-187	-59	-186	-183	0
-233	-234	-103	-235	0
-315	-247	-244	-312	0
-312	-313	-42	-314	0
-244	-245	-26	-246	0
-249	-65	-248	-247	0
-251	-20	-250	-247	0
564	567	520	553	0
566	567	520	555	0
-237	-238	-172	-230	0
-230	-231	-64	-232	0
-174	-12	-173	-172	0
-176	-54	-175	-172	0
-238	-298	-46	-299	0
-319	-316	-188	-252	0
-252	-253	-19	-254	0
-190	-98	-189	-188	0
-192	-71	-191	-188	0
-316	-317	-84	-318	0
-297	-294	-159	-291	0
-291	-292	-104	-293	0
-164	-27	-162	-159	0
-170	-6	-165	-159	0
-294	-295	-47	-296	0
-300	-177	-301	-302	0
-302	-303	-77	-304	0
-301	-377	-79	-378	0
-179	-85	-180	-177	0
-182	-73	-181	-177	0
-212	-209	-148	-206	0
-206	-207	-8	-208	0
-150	-97	-149	-148	0
-152	-89	-151	-148	0
-209	-210	-30	-211	0
486	423	489	492	493	0
488	423	491	492	493	0
-272	-273	-266	-269	-274	0
509	512	514	517	518	0
511	512	516	517	518	0
-514	-563	-564	-519	-559	0
-516	-563	-566	-519	-559	0
